c "787201.clq"
p edge 150 584
e 1 5
e 1 6
e 1 7
e 1 15
e 1 17
e 1 32
e 1 34
e 1 52
e 1 68
e 1 75
e 1 85
e 1 88
e 1 106
e 1 120
e 1 130
e 2 5
e 2 6
e 2 7
e 2 8
e 2 11
e 2 12
e 2 16
e 2 18
e 2 19
e 2 20
e 2 24
e 2 26
e 2 45
e 2 48
e 2 49
e 2 51
e 2 52
e 2 57
e 2 60
e 2 76
e 2 77
e 2 84
e 2 87
e 2 104
e 2 113
e 2 116
e 2 121
e 2 128
e 2 134
e 3 5
e 3 9
e 3 14
e 3 16
e 3 19
e 3 22
e 3 27
e 3 31
e 3 54
e 3 75
e 3 114
e 3 141
e 4 5
e 4 6
e 4 13
e 4 38
e 4 47
e 4 62
e 4 102
e 4 111
e 4 116
e 4 133
e 4 142
e 5 6
e 5 7
e 5 8
e 5 10
e 5 12
e 5 14
e 5 15
e 5 16
e 5 19
e 5 20
e 5 21
e 5 26
e 5 36
e 5 42
e 5 43
e 5 49
e 5 53
e 5 59
e 5 60
e 5 70
e 5 95
e 5 97
e 5 99
e 5 103
e 5 111
e 5 113
e 5 126
e 5 128
e 5 135
e 5 150
e 6 7
e 6 8
e 6 9
e 6 10
e 6 11
e 6 12
e 6 14
e 6 15
e 6 17
e 6 19
e 6 20
e 6 24
e 6 28
e 6 32
e 6 33
e 6 39
e 6 40
e 6 41
e 6 47
e 6 50
e 6 51
e 6 53
e 6 57
e 6 61
e 6 64
e 6 78
e 6 79
e 6 81
e 6 84
e 6 91
e 6 99
e 6 104
e 6 113
e 6 114
e 6 122
e 6 132
e 6 139
e 7 8
e 7 9
e 7 11
e 7 12
e 7 13
e 7 14
e 7 15
e 7 18
e 7 25
e 7 26
e 7 30
e 7 31
e 7 34
e 7 35
e 7 44
e 7 57
e 7 66
e 7 71
e 7 80
e 7 81
e 7 85
e 7 92
e 7 93
e 7 96
e 7 100
e 7 103
e 7 105
e 7 107
e 7 114
e 7 121
e 7 126
e 7 136
e 7 146
e 7 150
e 8 9
e 8 10
e 8 11
e 8 21
e 8 23
e 8 33
e 8 34
e 8 37
e 8 39
e 8 48
e 8 52
e 8 56
e 8 86
e 8 93
e 8 105
e 8 138
e 8 140
e 9 10
e 9 29
e 10 18
e 10 27
e 10 29
e 10 33
e 10 39
e 10 42
e 10 46
e 10 74
e 10 81
e 11 13
e 11 20
e 11 28
e 11 29
e 11 44
e 11 49
e 11 55
e 11 58
e 11 63
e 11 78
e 11 80
e 11 100
e 11 109
e 11 112
e 11 127
e 11 129
e 12 13
e 12 22
e 12 27
e 12 33
e 12 37
e 12 41
e 12 53
e 12 57
e 12 73
e 12 102
e 13 21
e 13 27
e 13 30
e 13 34
e 13 35
e 13 36
e 13 38
e 13 43
e 13 61
e 13 66
e 13 70
e 13 72
e 13 80
e 13 87
e 13 90
e 13 110
e 13 137
e 13 138
e 13 140
e 14 22
e 14 25
e 14 54
e 14 66
e 14 69
e 14 83
e 15 16
e 15 17
e 15 25
e 15 45
e 15 47
e 15 54
e 15 56
e 15 64
e 15 73
e 15 78
e 15 97
e 15 99
e 15 102
e 15 112
e 15 122
e 15 123
e 15 127
e 15 130
e 15 137
e 15 143
e 15 148
e 16 17
e 16 30
e 16 32
e 16 35
e 16 67
e 16 69
e 16 71
e 16 122
e 17 18
e 17 24
e 17 26
e 17 36
e 17 38
e 17 46
e 17 70
e 17 117
e 17 142
e 18 22
e 18 23
e 18 25
e 18 28
e 18 40
e 18 59
e 18 88
e 18 99
e 18 126
e 18 136
e 18 149
e 19 50
e 19 75
e 19 78
e 19 90
e 19 96
e 19 110
e 19 146
e 20 21
e 20 24
e 20 49
e 20 55
e 20 62
e 20 63
e 20 65
e 20 69
e 20 129
e 21 23
e 21 37
e 21 56
e 21 94
e 21 105
e 21 130
e 22 23
e 22 37
e 22 40
e 22 41
e 22 43
e 22 44
e 22 45
e 22 62
e 22 71
e 22 98
e 22 110
e 22 115
e 22 119
e 22 120
e 22 121
e 22 124
e 22 125
e 22 133
e 22 135
e 22 145
e 23 75
e 23 79
e 23 90
e 23 101
e 24 32
e 24 40
e 24 43
e 24 44
e 24 52
e 24 68
e 24 74
e 24 85
e 24 87
e 24 91
e 24 101
e 24 135
e 24 139
e 25 28
e 25 48
e 25 55
e 25 131
e 26 30
e 26 41
e 26 131
e 27 61
e 27 67
e 27 130
e 28 29
e 28 35
e 28 54
e 28 67
e 29 31
e 29 36
e 29 38
e 29 39
e 29 46
e 29 50
e 29 59
e 29 64
e 29 89
e 29 126
e 29 129
e 30 31
e 30 48
e 30 50
e 30 58
e 30 111
e 30 124
e 30 134
e 31 71
e 31 139
e 32 58
e 32 93
e 32 108
e 32 125
e 32 140
e 33 42
e 33 47
e 33 51
e 33 55
e 33 62
e 33 73
e 33 77
e 33 122
e 33 125
e 34 51
e 35 89
e 36 139
e 37 46
e 37 60
e 37 109
e 37 115
e 37 137
e 38 42
e 38 64
e 38 69
e 38 92
e 39 45
e 39 53
e 39 76
e 39 77
e 39 79
e 39 116
e 39 141
e 40 65
e 41 72
e 41 80
e 41 92
e 41 147
e 41 149
e 42 77
e 42 79
e 43 65
e 43 76
e 43 94
e 43 96
e 43 106
e 43 115
e 43 118
e 43 125
e 44 82
e 44 103
e 46 88
e 46 101
e 46 137
e 46 141
e 47 86
e 47 131
e 47 144
e 48 59
e 49 82
e 49 147
e 50 100
e 51 83
e 51 107
e 51 117
e 51 127
e 51 145
e 51 148
e 52 68
e 52 88
e 52 90
e 52 93
e 52 101
e 52 107
e 53 85
e 53 95
e 53 117
e 53 118
e 54 56
e 54 63
e 54 67
e 54 96
e 54 128
e 55 65
e 55 86
e 55 116
e 56 86
e 57 58
e 57 95
e 58 60
e 58 72
e 58 81
e 59 70
e 59 74
e 59 113
e 59 118
e 59 119
e 60 61
e 60 66
e 60 72
e 60 91
e 60 107
e 60 114
e 60 121
e 60 129
e 60 134
e 61 63
e 61 68
e 61 108
e 63 74
e 63 87
e 63 89
e 63 91
e 63 92
e 63 98
e 64 112
e 66 98
e 67 73
e 67 82
e 67 94
e 67 134
e 67 148
e 68 97
e 69 82
e 69 83
e 69 133
e 71 95
e 71 119
e 71 124
e 71 136
e 71 144
e 71 146
e 72 132
e 73 76
e 73 118
e 73 133
e 75 111
e 75 124
e 77 120
e 77 147
e 78 84
e 78 89
e 78 100
e 78 108
e 79 84
e 79 143
e 80 102
e 80 104
e 82 83
e 83 106
e 83 149
e 84 108
e 84 109
e 84 112
e 84 135
e 85 97
e 85 120
e 86 143
e 88 138
e 88 144
e 88 148
e 90 104
e 90 115
e 90 123
e 91 103
e 91 119
e 92 98
e 92 145
e 93 94
e 93 138
e 93 144
e 94 142
e 99 143
e 100 145
e 100 150
e 101 105
e 101 109
e 101 136
e 102 106
e 103 147
e 104 110
e 104 117
e 108 150
e 111 123
e 114 123
e 116 127
e 116 128
e 116 132
e 123 132
e 129 131
e 130 149
e 132 146
e 138 141
e 139 140
e 140 142
